
Gurobi 5.6.3 (linux64) logging started Tue Jun 24 17:21:57 2014

Optimize a model with 600 rows, 90000 columns and 180000 nonzeros
Found heuristic solution: objective 148.633
Presolve time: 0.37s
Presolved: 600 rows, 90000 columns, 180000 nonzeros
Variable types: 0 continuous, 90000 integer (90000 binary)

Root relaxation: objective 2.984435e+02, 701 iterations, 0.05 seconds

    Nodes    |    Current Node    |     Objective Bounds      |     Work
 Expl Unexpl |  Obj  Depth IntInf | Incumbent    BestBd   Gap | It/Node Time

*    0     0               0     298.4434535  298.44345  0.00%     -    0s

Explored 0 nodes (701 simplex iterations) in 0.53 seconds
Thread count was 8 (of 8 available processors)

Optimal solution found (tolerance 1.00e-04)
Best objective 2.984434534542e+02, best bound 2.984434534542e+02, gap 0.0%

Gurobi 5.6.3 (linux64) logging started Tue Jun 24 17:22:07 2014

Optimize a model with 600 rows, 90000 columns and 180000 nonzeros
Found heuristic solution: objective 147.428
Presolve time: 0.35s
Presolved: 600 rows, 90000 columns, 180000 nonzeros
Variable types: 0 continuous, 90000 integer (90000 binary)

Root relaxation: objective 2.983454e+02, 719 iterations, 0.04 seconds

    Nodes    |    Current Node    |     Objective Bounds      |     Work
 Expl Unexpl |  Obj  Depth IntInf | Incumbent    BestBd   Gap | It/Node Time

*    0     0               0     298.3453565  298.34536  0.00%     -    0s

Explored 0 nodes (719 simplex iterations) in 0.49 seconds
Thread count was 8 (of 8 available processors)

Optimal solution found (tolerance 1.00e-04)
Best objective 2.983453564548e+02, best bound 2.983453564548e+02, gap 0.0%
